loop__main__1391:
(set-info :source |printed by MathSAT|)
(declare-fun |main::local_14| () (_ BitVec 32))
(assert (let ((.def_364 (= |main::local_14| (_ bv4 32))))(let ((.def_386 (not .def_364)))(let ((.def_366 (= |main::local_14| (_ bv5 32))))(let ((.def_385 (not .def_366)))(let ((.def_387 (and .def_385 .def_386)))(let ((.def_189 (= |main::local_14| (_ bv3 32))))(let ((.def_201 (not .def_189)))(let ((.def_388 (and .def_201 .def_387)))(let ((.def_187 (= |main::local_14| (_ bv2 32))))(let ((.def_444 (and .def_187 .def_388)))(let ((.def_81 (= |main::local_14| (_ bv1 32))))(let ((.def_485 (or .def_81 .def_444)))(let ((.def_202 (not .def_187)))(let ((.def_389 (and .def_202 .def_388)))(let ((.def_92 (not .def_81)))(let ((.def_484 (or .def_92 .def_389)))(let ((.def_486 (and .def_484 .def_485)))(let ((.def_79 (= |main::local_14| (_ bv0 32))))(let ((.def_488 (or .def_79 .def_486)))(let ((.def_390 (and .def_92 .def_389)))(let ((.def_108 (not .def_79)))(let ((.def_487 (or .def_108 .def_390)))(let ((.def_489 (and .def_487 .def_488)))(let ((.def_49 (= |main::local_14| (_ bv6 32))))(let ((.def_53 (not .def_49)))(let ((.def_490 (and .def_53 .def_489))).def_490)))))))))))))))))))))))))))
